p cnf 42 7
-19 18 20 -19 23 -23 6 29 -30 -34 -3 39 -42 -14 1 -2 -21 -15 16 11 -15 -2 -27 -8 20 -36 -8 0
37 -12 30 -41 -17 -29 37 -6 -27 42 24 10 30 -19 21 -6 8 -4 -33 -31 7 6 20 -28 27 29 21 -19 0
-31 -40 11 -10 20 0
25 -18 -39 -13 -35 -16 -7 -16 -23 -28 15 35 -1 -39 25 37 8 -36 -17 15 34 32 19 16 -4 0
-6 20 -20 23 29 -31 15 -23 -3 16 0
-33 0
-23 -37 -35 41 38 -37 -10 20 28 -21 -11 4 21 37 -5 -30 21 36 8 8 -25 12 30 32 2 -14 -26 0